0000000000000000
0111111111111110
0111111111111110
0111111111111110
0111111111111100
0000000011111000
0000000011111000
0000000011111000
0000000011111000
0000000011111000
0000000011111000
0000000011111000
0000000011111000
0000000011111000
0000000011111000
0000000000000000
